
******************************************************************************
This program contains Ipopt, a library for large-scale nonlinear optimization.
 Ipopt is released as open source code under the Eclipse Public License (EPL).
         For more information visit http://projects.coin-or.org/Ipopt

This version of Ipopt was compiled from source code available at
    https://github.com/IDAES/Ipopt as part of the Institute for the Design of
    Advanced Energy Systems Process Systems Engineering Framework (IDAES PSE
    Framework) Copyright (c) 2018-2019. See https://github.com/IDAES/idaes-pse.

This version of Ipopt was compiled using HSL, a collection of Fortran codes
    for large-scale scientific computation.  All technical papers, sales and
    publicity material resulting from use of the HSL codes within IPOPT must
    contain the following acknowledgement:
        HSL, a collection of Fortran codes for large-scale scientific
        computation. See http://www.hsl.rl.ac.uk.
******************************************************************************

This is Ipopt version 3.13.2, running with linear solver ma27.

Number of nonzeros in equality constraint Jacobian...:      808
Number of nonzeros in inequality constraint Jacobian.:        0
Number of nonzeros in Lagrangian Hessian.............:      702

Total number of variables............................:      351
                     variables with only lower bounds:      108
                variables with lower and upper bounds:      189
                     variables with only upper bounds:        0
Total number of equality constraints.................:      350
Total number of inequality constraints...............:        0
        inequality constraints with only lower bounds:        0
   inequality constraints with lower and upper bounds:        0
        inequality constraints with only upper bounds:        0

iter    objective    inf_pr   inf_du lg(mu)  ||d||  lg(rg) alpha_du alpha_pr  ls
   0  0.0000000e+00 4.79e-01 1.78e-15  -1.0 0.00e+00    -  0.00e+00 0.00e+00   0
   1  5.3787099e-01 4.06e-01 2.82e+03  -1.0 2.86e+05    -  6.77e-01 1.58e-01h  1
   2  5.9547812e-01 4.02e-01 2.90e+03  -1.0 3.04e+05    -  7.07e-01 9.56e-03h  1
   3  2.9820717e+01 6.63e-02 1.60e+04  -1.0 3.16e+05    -  7.12e-01 9.90e-01h  1
   4  4.0590912e+01 2.79e-03 5.45e+02  -1.0 6.22e+04    -  9.36e-01 9.90e-01h  1
   5  4.1018885e+01 3.18e-05 2.92e+01  -1.0 2.38e+03    -  9.90e-01 9.90e-01h  1
   6  4.1019784e+01 3.13e-05 1.17e+07  -1.0 5.59e+02    -  9.90e-01 1.55e-02f  7
   7  4.1023332e+01 3.04e-05 2.30e+07  -1.0 1.15e+03    -  9.90e-01 3.09e-02f  6
   8  4.1135141e+01 4.51e-05 3.56e+05  -1.0 1.14e+03    -  1.00e+00 9.90e-01H  1
   9  4.1134980e+01 4.48e-07 1.26e+07  -1.0 2.16e+00    -  1.00e+00 9.90e-01h  1
iter    objective    inf_pr   inf_du lg(mu)  ||d||  lg(rg) alpha_du alpha_pr  ls
  10  4.1134980e+01 4.48e-09 1.26e+09  -1.0 6.59e-03    -  1.00e+00 9.90e-01h  1
  11  4.1134980e+01 4.50e-11 1.26e+11  -1.0 6.62e-05    -  1.00e+00 9.90e-01h  1
In iteration 11, 27 Slacks too small, adjusting variable bounds
  12  4.1134980e+01 7.17e-13 1.26e+13  -1.0 7.47e-07    -  1.00e+00 9.90e-01h  1
  13  4.1134980e+01 4.57e-13 6.22e+14  -1.0 1.05e-07    -  1.00e+00 5.00e-01h  2
  14  4.1134980e+01 1.12e-12 4.67e+14  -1.0 7.06e-08    -  1.00e+00 2.50e-01h  3
  15  4.1134980e+01 1.56e-12 3.50e+14  -1.0 1.84e-07    -  1.00e+00 2.50e-01h  3
  16  4.1134980e+01 4.40e-13 3.45e+14  -1.0 2.56e-07    -  1.00e+00 1.56e-02h  7
  17  4.1134980e+01 2.63e-12 4.10e-02  -1.0 1.25e-07    -  1.00e+00 1.00e+00s 22
  18  4.1023281e+01 6.74e-04 1.17e+00  -9.0 1.32e+03    -  8.84e-01 8.84e-01s 22
  19  4.1022267e+01 5.78e-09 2.41e-04  -9.0 1.02e+01    -  1.00e+00 1.00e+00s 22
iter    objective    inf_pr   inf_du lg(mu)  ||d||  lg(rg) alpha_du alpha_pr  ls
  20  4.1022267e+01 3.75e-12 1.44e-09  -9.0 3.67e-05    -  1.00e+00 1.00e+00s 22

Number of Iterations....: 20

                                   (scaled)                 (unscaled)
Objective...............:   4.1022267327074672e+01    4.1022267327074672e+01
Dual infeasibility......:   1.4406396076083183e-09    1.4406396076083183e-09
Constraint violation....:   3.7525538232330291e-12    3.7525538232330291e-12
Complementarity.........:   9.0910770145370134e-10    9.0910770145370134e-10
Overall NLP error.......:   1.9316387403643769e-11    1.4406396076083183e-09


Number of objective function evaluations             = 76
Number of objective gradient evaluations             = 21
Number of equality constraint evaluations            = 76
Number of inequality constraint evaluations          = 0
Number of equality constraint Jacobian evaluations   = 21
Number of inequality constraint Jacobian evaluations = 0
Number of Lagrangian Hessian evaluations             = 20
Total CPU secs in IPOPT (w/o function evaluations)   =      0.041
Total CPU secs in NLP function evaluations           =      0.614

EXIT: Optimal Solution Found.
